(set-logic HORN)
(set-info :source |
    Benchmark: C_VC
    Output by Princess (http://www.philipp.ruemmer.org/princess.shtml)
|)
(set-info :status sat)
(declare-fun inv_main6 (Int Int Int Int) Bool)
(declare-fun inv_main606 (Int Int Int Int Int Int Int Int Int Int Int Int Int Int Int Int Int Int Int Int Int Int Int Int Int Int Int Int Int Int Int Int Int Int Int Int Int Int Int Int Int Int Int Int Int Int Int Int Int Int Int Int Int Int Int Int Int Int Int Int Int Int Int Int Int Int Int Int) Bool)
(assert (forall ((var0 Int) (var1 Int) (var2 Int)) (inv_main6 var2 0 var1 var0)))
(assert (forall ((var0 Int) (var1 Int) (var2 Int) (var3 Int) (var4 Int) (var5 Int) (var6 Int) (var7 Int) (var8 Int) (var9 Int) (var10 Int) (var11 Int) (var12 Int) (var13 Int) (var14 Int) (var15 Int) (var16 Int) (var17 Int) (var18 Int) (var19 Int) (var20 Int) (var21 Int) (var22 Int) (var23 Int) (var24 Int) (var25 Int) (var26 Int) (var27 Int) (var28 Int) (var29 Int) (var30 Int) (var31 Int) (var32 Int) (var33 Int) (var34 Int) (var35 Int) (var36 Int) (var37 Int) (var38 Int) (var39 Int) (var40 Int) (var41 Int) (var42 Int) (var43 Int) (var44 Int) (var45 Int) (var46 Int) (var47 Int) (var48 Int) (var49 Int) (var50 Int) (var51 Int) (var52 Int) (var53 Int) (var54 Int) (var55 Int) (var56 Int) (var57 Int) (var58 Int) (var59 Int) (var60 Int) (var61 Int) (var62 Int) (var63 Int) (var64 Int) (var65 Int) (var66 Int) (var67 Int)) (or (not (and (inv_main6 var67 var66 var65 var64) (and (and (and (and (and (and (and (and (and (and (and (and (and (and (and (and (and (and (and (and (and (and (and (and (and (and (and (and (and (and (and (and (and (and (and (and (and (and (and (and (and (and (and (and (and (and (and (and (and (and (and (and (and (and (and (and (and (and (and (and (and (and (and (and (and (<= 0 (+ (+ var63 var62) (- 2))) (and (not (= var63 var62)) (and (<= 0 (+ (+ var63 var61) (- 2))) (and (not (= var63 var61)) (and (<= 0 (+ (+ var63 var60) (- 2))) (and (not (= var63 var60)) (and (<= 0 (+ (+ var63 var59) (- 2))) (and (not (= var63 var59)) (and (<= 0 (+ (+ var63 var58) (- 2))) (and (not (= var63 var58)) (and (<= 0 (+ (+ var63 var57) (- 2))) (and (not (= var63 var57)) (and (<= 0 (+ (+ var63 var56) (- 2))) (and (not (= var63 var56)) (and (<= 0 (+ (+ var55 var54) (- 2))) (and (not (= var55 var54)) (and (<= 0 (+ (+ var55 var53) (- 2))) (and (not (= var55 var53)) (and (<= 0 (+ (+ var55 var52) (- 2))) (and (not (= var55 var52)) (and (<= 0 (+ (+ var55 var51) (- 2))) (and (not (= var55 var51)) (and (<= 0 (+ (+ var55 var50) (- 2))) (and (not (= var55 var50)) (and (<= 0 (+ (+ var55 var49) (- 2))) (and (not (= var55 var49)) (and (<= 0 (+ (+ var55 var48) (- 2))) (and (not (= var55 var48)) (and (<= 0 (+ (+ var47 var46) (- 2))) (and (not (= var47 var46)) (and (<= 0 (+ (+ var47 var45) (- 2))) (and (not (= var47 var45)) (and (<= 0 (+ (+ var47 var44) (- 2))) (and (not (= var47 var44)) (and (<= 0 (+ (+ var47 var43) (- 2))) (and (not (= var47 var43)) (and (<= 0 (+ (+ var47 var42) (- 2))) (and (not (= var47 var42)) (and (<= 0 (+ (+ var47 var41) (- 2))) (and (not (= var47 var41)) (and (<= 0 (+ (+ var47 var40) (- 2))) (and (not (= var47 var40)) (and (<= 0 (+ (+ var39 var38) (- 2))) (and (not (= var39 var38)) (and (<= 0 (+ (+ var39 var37) (- 2))) (and (not (= var39 var37)) (and (<= 0 (+ (+ var39 var36) (- 2))) (and (not (= var39 var36)) (and (<= 0 (+ (+ var39 var35) (- 2))) (and (not (= var39 var35)) (and (<= 0 (+ (+ var39 var34) (- 2))) (and (not (= var39 var34)) (and (<= 0 (+ (+ var39 var33) (- 2))) (and (not (= var39 var33)) (and (<= 0 (+ (+ var39 var32) (- 2))) (and (not (= var39 var32)) (and (<= 0 (+ (+ var31 var30) (- 2))) (and (not (= var31 var30)) (and (<= 0 (+ (+ var31 var29) (- 2))) (and (not (= var31 var29)) (and (<= 0 (+ (+ var31 var28) (- 2))) (and (not (= var31 var28)) (and (<= 0 (+ (+ var31 var27) (- 2))) (and (not (= var31 var27)) (and (<= 0 (+ (+ var31 var26) (- 2))) (and (not (= var31 var26)) (and (<= 0 (+ (+ var31 var25) (- 2))) (and (not (= var31 var25)) (and (<= 0 (+ (+ var31 var24) (- 2))) (and (not (= var31 var24)) (and (<= 0 (+ (+ var23 var22) (- 2))) (and (not (= var23 var22)) (and (<= 0 (+ (+ var23 var21) (- 2))) (and (not (= var23 var21)) (and (<= 0 (+ (+ var23 var20) (- 2))) (and (not (= var23 var20)) (and (<= 0 (+ (+ var23 var19) (- 2))) (and (not (= var23 var19)) (and (<= 0 (+ (+ var23 var18) (- 2))) (and (not (= var23 var18)) (and (<= 0 (+ (+ var23 var17) (- 2))) (and (not (= var23 var17)) (and (<= 0 (+ (+ var23 var16) (- 2))) (and (not (= var23 var16)) (and (<= 0 (+ (+ var15 var14) (- 2))) (and (not (= var15 var14)) (and (<= 0 (+ (+ var15 var13) (- 2))) (and (not (= var15 var13)) (and (<= 0 (+ (+ var15 var12) (- 2))) (and (not (= var15 var12)) (and (<= 0 (+ (+ var15 var11) (- 2))) (and (not (= var15 var11)) (and (<= 0 (+ (+ var15 var10) (- 2))) (and (not (= var15 var10)) (and (<= 0 (+ (+ var15 var9) (- 2))) (and (not (= var15 var9)) (and (<= 0 (+ (+ var15 var8) (- 2))) (and (not (= var15 var8)) (and (= var7 var55) (and (= var6 var63) (and (= var5 var31) (and (= var4 var47) (and (= var3 var15) (and (= var2 var23) (and (= var1 var39) (and (<= 0 (+ (* (- 1) (* (+ var7 (* (- 1) var6)) (+ var6 (* (- 1) var7)))) (- 1))) (and (<= 0 (+ (* (- 1) (* (+ var7 (* (- 1) var2)) (+ var2 (* (- 1) var7)))) (- 1))) (and (<= 0 (+ (* (- 1) (* (+ var7 (* (- 1) var1)) (+ var1 (* (- 1) var7)))) (- 1))) (and (<= 0 (+ (* (- 1) (* (+ var62 (* (- 1) var59)) (+ var59 (* (- 1) var62)))) (- 1))) (and (<= 0 (+ (* (- 1) (* (+ var38 (* (- 1) var34)) (+ var34 (* (- 1) var38)))) (- 1))) (and (<= 0 (+ (* (- 1) (* (+ var61 (* (- 1) var62)) (+ var62 (* (- 1) var61)))) (- 1))) (and (<= 0 (+ (* (- 1) (* (+ var61 (* (- 1) var59)) (+ var59 (* (- 1) var61)))) (- 1))) (and (<= 0 (+ (* (- 1) (* (+ var21 (* (- 1) var22)) (+ var22 (* (- 1) var21)))) (- 1))) (and (<= 0 (+ (* (- 1) (* (+ var21 (* (- 1) var19)) (+ var19 (* (- 1) var21)))) (- 1))) (and (<= 0 (+ (* (- 1) (* (+ var21 (* (- 1) var16)) (+ var16 (* (- 1) var21)))) (- 1))) (and (<= 0 (+ (* (- 1) (* (+ var14 (* (- 1) var13)) (+ var13 (* (- 1) var14)))) (- 1))) (and (<= 0 (+ (* (- 1) (* (+ var14 (* (- 1) var12)) (+ var12 (* (- 1) var14)))) (- 1))) (and (<= 0 (+ (* (- 1) (* (+ var14 (* (- 1) var8)) (+ var8 (* (- 1) var14)))) (- 1))) (and (<= 0 (+ (* (- 1) (* (+ var6 (* (- 1) var5)) (+ var5 (* (- 1) var6)))) (- 1))) (and (<= 0 (+ (* (- 1) (* (+ var6 (* (- 1) var2)) (+ var2 (* (- 1) var6)))) (- 1))) (and (<= 0 (+ (* (- 1) (* (+ var6 (* (- 1) var1)) (+ var1 (* (- 1) var6)))) (- 1))) (and (<= 0 (+ (* (- 1) (* (+ var20 (* (- 1) var22)) (+ var22 (* (- 1) var20)))) (- 1))) (and (<= 0 (+ (* (- 1) (* (+ var20 (* (- 1) var16)) (+ var16 (* (- 1) var20)))) (- 1))) (and (<= 0 (+ (* (- 1) (* (+ var60 (* (- 1) var59)) (+ var59 (* (- 1) var60)))) (- 1))) (and (<= 0 (+ (* (- 1) (* (+ var60 (* (- 1) var57)) (+ var57 (* (- 1) var60)))) (- 1))) (and (<= 0 (+ (* (- 1) (* (+ var5 (* (- 1) var0)) (+ var0 (* (- 1) var5)))) (- 1))) (and (<= 0 (+ (* (- 1) (* (+ var5 (* (- 1) var4)) (+ var4 (* (- 1) var5)))) (- 1))) (and (<= 0 (+ (* (- 1) (* (+ var5 (* (- 1) var2)) (+ var2 (* (- 1) var5)))) (- 1))) (and (<= 0 (+ (* (- 1) (* (+ var5 (* (- 1) var1)) (+ var1 (* (- 1) var5)))) (- 1))) (and (<= 0 (+ (* (- 1) (* (+ var13 (* (- 1) var9)) (+ var9 (* (- 1) var13)))) (- 1))) (and (<= 0 (+ (* (- 1) (* (+ var29 (* (- 1) var30)) (+ var30 (* (- 1) var29)))) (- 1))) (and (<= 0 (+ (* (- 1) (* (+ var29 (* (- 1) var27)) (+ var27 (* (- 1) var29)))) (- 1))) (and (<= 0 (+ (* (- 1) (* (+ var29 (* (- 1) var25)) (+ var25 (* (- 1) var29)))) (- 1))) (and (<= 0 (+ (* (- 1) (* (+ var37 (* (- 1) var35)) (+ var35 (* (- 1) var37)))) (- 1))) (and (<= 0 (+ (* (- 1) (* (+ var37 (* (- 1) var32)) (+ var32 (* (- 1) var37)))) (- 1))) (and (<= 0 (+ (* (- 1) (* (+ var46 (* (- 1) var45)) (+ var45 (* (- 1) var46)))) (- 1))) (and (<= 0 (+ (* (- 1) (* (+ var36 (* (- 1) var33)) (+ var33 (* (- 1) var36)))) (- 1))) (and (<= 0 (+ (* (- 1) (* (+ var36 (* (- 1) var32)) (+ var32 (* (- 1) var36)))) (- 1))) (and (<= 0 (+ (* (- 1) (* (+ var12 (* (- 1) var13)) (+ var13 (* (- 1) var12)))) (- 1))) (and (<= 0 (+ (* (- 1) (* (+ var12 (* (- 1) var11)) (+ var11 (* (- 1) var12)))) (- 1))) (and (<= 0 (+ (* (- 1) (* (+ var4 (* (- 1) var2)) (+ var2 (* (- 1) var4)))) (- 1))) (and (<= 0 (+ (* (- 1) (* (+ var53 (* (- 1) var49)) (+ var49 (* (- 1) var53)))) (- 1))) (and (<= 0 (+ (* (- 1) (* (+ var18 (* (- 1) var22)) (+ var22 (* (- 1) var18)))) (- 1))) (and (<= 0 (+ (* (- 1) (* (+ var18 (* (- 1) var21)) (+ var21 (* (- 1) var18)))) (- 1))) (and (<= 0 (+ (* (- 1) (* (+ var18 (* (- 1) var19)) (+ var19 (* (- 1) var18)))) (- 1))) (and (<= 0 (+ (* (- 1) (* (+ var3 (* (- 1) var6)) (+ var6 (* (- 1) var3)))) (- 1))) (and (<= 0 (+ (* (- 1) (* (+ var3 (* (- 1) var1)) (+ var1 (* (- 1) var3)))) (- 1))) (and (<= 0 (+ (* (- 1) (* (+ var11 (* (- 1) var9)) (+ var9 (* (- 1) var11)))) (- 1))) (and (<= 0 (+ (* (- 1) (* (+ var11 (* (- 1) var8)) (+ var8 (* (- 1) var11)))) (- 1))) (and (<= 0 (+ (* (- 1) (* (+ var44 (* (- 1) var46)) (+ var46 (* (- 1) var44)))) (- 1))) (and (<= 0 (+ (* (- 1) (* (+ var44 (* (- 1) var45)) (+ var45 (* (- 1) var44)))) (- 1))) (and (<= 0 (+ (* (- 1) (* (+ var43 (* (- 1) var46)) (+ var46 (* (- 1) var43)))) (- 1))) (and (<= 0 (+ (* (- 1) (* (+ var43 (* (- 1) var45)) (+ var45 (* (- 1) var43)))) (- 1))) (and (<= 0 (+ (* (- 1) (* (+ var43 (* (- 1) var40)) (+ var40 (* (- 1) var43)))) (- 1))) (and (<= 0 (+ (* (- 1) (* (+ var28 (* (- 1) var30)) (+ var30 (* (- 1) var28)))) (- 1))) (and (<= 0 (+ (* (- 1) (* (+ var28 (* (- 1) var29)) (+ var29 (* (- 1) var28)))) (- 1))) (and (<= 0 (+ (* (- 1) (* (+ var28 (* (- 1) var27)) (+ var27 (* (- 1) var28)))) (- 1))) (and (<= 0 (+ (* (- 1) (* (+ var34 (* (- 1) var33)) (+ var33 (* (- 1) var34)))) (- 1))) (and (<= 0 (+ (* (- 1) (* (+ var10 (* (- 1) var14)) (+ var14 (* (- 1) var10)))) (- 1))) (and (<= 0 (+ (* (- 1) (* (+ var10 (* (- 1) var13)) (+ var13 (* (- 1) var10)))) (- 1))) (and (<= 0 (+ (* (- 1) (* (+ var10 (* (- 1) var12)) (+ var12 (* (- 1) var10)))) (- 1))) (and (<= 0 (+ (* (- 1) (* (+ var10 (* (- 1) var9)) (+ var9 (* (- 1) var10)))) (- 1))) (and (<= 0 (+ (* (- 1) (* (+ var10 (* (- 1) var8)) (+ var8 (* (- 1) var10)))) (- 1))) (and (<= 0 (+ (* (- 1) (* (+ var17 (* (- 1) var19)) (+ var19 (* (- 1) var17)))) (- 1))) (and (<= 0 (+ (* (- 1) (* (+ var2 (* (- 1) var0)) (+ var0 (* (- 1) var2)))) (- 1))) (and (<= 0 (+ (* (- 1) (* (+ var58 (* (- 1) var62)) (+ var62 (* (- 1) var58)))) (- 1))) (and (<= 0 (+ (* (- 1) (* (+ var58 (* (- 1) var60)) (+ var60 (* (- 1) var58)))) (- 1))) (and (<= 0 (+ (* (- 1) (* (+ var26 (* (- 1) var30)) (+ var30 (* (- 1) var26)))) (- 1))) (and (<= 0 (+ (* (- 1) (* (+ var26 (* (- 1) var29)) (+ var29 (* (- 1) var26)))) (- 1))) (and (<= 0 (+ (* (- 1) (* (+ var26 (* (- 1) var25)) (+ var25 (* (- 1) var26)))) (- 1))) (and (<= 0 (+ (* (- 1) (* (+ var56 (* (- 1) var61)) (+ var61 (* (- 1) var56)))) (- 1))) (and (<= 0 (+ (* (- 1) (* (+ var56 (* (- 1) var60)) (+ var60 (* (- 1) var56)))) (- 1))) (and (<= 0 (+ (* (- 1) (* (+ var56 (* (- 1) var57)) (+ var57 (* (- 1) var56)))) (- 1))) (and (<= 0 (+ (* (- 1) (* (+ var25 (* (- 1) var27)) (+ var27 (* (- 1) var25)))) (- 1))) (and (<= 0 (+ (* (- 1) (* (+ var51 (* (- 1) var54)) (+ var54 (* (- 1) var51)))) (- 1))) (and (<= 0 (+ (* (- 1) (* (+ var51 (* (- 1) var53)) (+ var53 (* (- 1) var51)))) (- 1))) (and (<= 0 (+ (* (- 1) (* (+ var9 (* (- 1) var8)) (+ var8 (* (- 1) var9)))) (- 1))) (and (<= 0 (+ (* (- 1) (* (+ var50 (* (- 1) var54)) (+ var54 (* (- 1) var50)))) (- 1))) (and (<= 0 (+ (* (- 1) (* (+ var50 (* (- 1) var52)) (+ var52 (* (- 1) var50)))) (- 1))) (and (<= 0 (+ (* (- 1) (* (+ var1 (* (- 1) var4)) (+ var4 (* (- 1) var1)))) (- 1))) (and (<= 0 (+ (* (- 1) (* (+ var24 (* (- 1) var29)) (+ var29 (* (- 1) var24)))) (- 1))) (and (<= 0 (+ (* (- 1) (* (+ var24 (* (- 1) var26)) (+ var26 (* (- 1) var24)))) (- 1))) (and (<= 0 (+ (* (- 1) (* (+ var42 (* (- 1) var46)) (+ var46 (* (- 1) var42)))) (- 1))) (and (<= 0 (+ (* (- 1) (* (+ var42 (* (- 1) var45)) (+ var45 (* (- 1) var42)))) (- 1))) (and (<= 0 (+ (* (- 1) (* (+ var42 (* (- 1) var41)) (+ var41 (* (- 1) var42)))) (- 1))) (and (<= 0 (+ (* (- 1) (* (+ var42 (* (- 1) var40)) (+ var40 (* (- 1) var42)))) (- 1))) (and (<= 0 (+ (* (- 1) (* (+ var41 (* (- 1) var45)) (+ var45 (* (- 1) var41)))) (- 1))) (and (<= 0 (+ (* (- 1) (* (+ var32 (* (- 1) var33)) (+ var33 (* (- 1) var32)))) (- 1))) (and (<= 0 (+ (* (- 1) (* (+ var16 (* (- 1) var22)) (+ var22 (* (- 1) var16)))) (- 1))) (and (<= 0 (+ (* (- 1) (* (+ var16 (* (- 1) var17)) (+ var17 (* (- 1) var16)))) (- 1))) (and (<= 0 (+ (* (- 1) (* (+ var40 (* (- 1) var41)) (+ var41 (* (- 1) var40)))) (- 1))) (and (not (= var7 var5)) (and (not (= var7 var0)) (and (not (= var7 var4)) (and (not (= var62 var57)) (and (not (= var38 var37)) (and (not (= var38 var35)) (and (not (= var38 var33)) (and (not (= var38 var32)) (and (not (= var61 var57)) (and (not (= var22 var19)) (and (not (= var22 var17)) (and (not (= var21 var17)) (and (not (= var14 var11)) (and (not (= var14 var9)) (and (not (= var6 var0)) (and (not (= var6 var4)) (and (not (= var54 var53)) (and (not (= var54 var52)) (and (not (= var54 var49)) (and (not (= var54 var48)) (and (not (= var30 var27)) (and (not (= var20 var21)) (and (not (= var20 var19)) (and (not (= var20 var17)) (and (not (= var60 var62)) (and (not (= var60 var61)) (and (not (= var13 var11)) (and (not (= var13 var8)) (and (not (= var37 var34)) (and (not (= var37 var33)) (and (not (= var36 var38)) (and (not (= var36 var37)) (and (not (= var36 var35)) (and (not (= var36 var34)) (and (not (= var12 var9)) (and (not (= var12 var8)) (and (not (= var4 var0)) (and (not (= var53 var48)) (and (not (= var18 var20)) (and (not (= var18 var17)) (and (not (= var18 var16)) (and (not (= var3 var7)) (and (not (= var3 var5)) (and (not (= var3 var0)) (and (not (= var3 var4)) (and (not (= var3 var2)) (and (not (= var35 var34)) (and (not (= var35 var33)) (and (not (= var35 var32)) (and (not (= var44 var42)) (and (not (= var44 var41)) (and (not (= var44 var40)) (and (not (= var43 var44)) (and (not (= var43 var42)) (and (not (= var43 var41)) (and (not (= var28 var25)) (and (not (= var34 var32)) (and (not (= var10 var11)) (and (not (= var58 var61)) (and (not (= var58 var59)) (and (not (= var58 var57)) (and (not (= var58 var56)) (and (not (= var57 var59)) (and (not (= var52 var53)) (and (not (= var52 var49)) (and (not (= var52 var48)) (and (not (= var26 var28)) (and (not (= var26 var27)) (and (not (= var56 var62)) (and (not (= var56 var59)) (and (not (= var25 var30)) (and (not (= var51 var52)) (and (not (= var51 var49)) (and (not (= var51 var48)) (and (not (= var50 var53)) (and (not (= var50 var51)) (and (not (= var50 var49)) (and (not (= var50 var48)) (and (not (= var1 var0)) (and (not (= var1 var2)) (and (not (= var24 var30)) (and (not (= var24 var28)) (and (not (= var24 var27)) (and (not (= var24 var25)) (and (not (= var41 var46)) (and (not (= var16 var19)) (and (not (= var40 var46)) (and (not (= var40 var45)) (not (= var48 var49))))))))))))))))))))))))))))))))))))))))))))))))))))))))))))))))))))))))))))))))))))))))))))))))))))))))))))))))))))))))))))))))))))))))))))))))))))))))))))))))))))))))))))))))))))))))))))))))))))))))))))))))))))))))))))))))))))))))))))))))))))))))))))))))))))))))))))))))))))))))) (and (<= 0 (+ 7 (* (- 1) var38))) (<= 0 var38))) (and (<= 0 (+ 7 (* (- 1) var61))) (<= 0 var61))) (and (<= 0 (+ 7 (* (- 1) var22))) (<= 0 var22))) (and (<= 0 (+ 7 (* (- 1) var55))) (<= 0 var55))) (and (<= 0 (+ 7 (* (- 1) var47))) (<= 0 var47))) (and (<= 0 (+ 7 (* (- 1) var14))) (<= 0 var14))) (and (<= 0 (+ 7 (* (- 1) var6))) (<= 0 var6))) (and (<= 0 (+ 7 (* (- 1) var54))) (<= 0 var54))) (and (<= 0 (+ 7 (* (- 1) var30))) (<= 0 var30))) (and (<= 0 (+ 7 (* (- 1) var39))) (<= 0 var39))) (and (<= 0 (+ 7 (* (- 1) var20))) (<= 0 var20))) (and (<= 0 (+ 7 (* (- 1) var60))) (<= 0 var60))) (and (<= 0 (+ 7 (* (- 1) var5))) (<= 0 var5))) (and (<= 0 (+ 7 (* (- 1) var13))) (<= 0 var13))) (and (<= 0 (+ 7 (* (- 1) var29))) (<= 0 var29))) (and (<= 0 (+ 7 (* (- 1) var37))) (<= 0 var37))) (and (<= 0 (+ 7 (* (- 1) var46))) (<= 0 var46))) (and (<= 0 (+ 7 (* (- 1) var59))) (<= 0 var59))) (and (<= 0 (+ 7 (* (- 1) var36))) (<= 0 var36))) (and (<= 0 (+ 7 (* (- 1) var0))) (<= 0 var0))) (and (<= 0 (+ 7 (* (- 1) var12))) (<= 0 var12))) (and (<= 0 (+ 7 (* (- 1) var4))) (<= 0 var4))) (and (<= 0 (+ 7 (* (- 1) var45))) (<= 0 var45))) (and (<= 0 (+ 7 (* (- 1) var53))) (<= 0 var53))) (and (<= 0 (+ 7 (* (- 1) var3))) (<= 0 var3))) (and (<= 0 (+ 7 (* (- 1) var31))) (<= 0 var31))) (and (<= 0 (+ 7 (* (- 1) var35))) (<= 0 var35))) (and (<= 0 (+ 7 (* (- 1) var11))) (<= 0 var11))) (and (<= 0 (+ 7 (* (- 1) var23))) (<= 0 var23))) (and (<= 0 (+ 7 (* (- 1) var44))) (<= 0 var44))) (and (<= 0 (+ 7 (* (- 1) var43))) (<= 0 var43))) (and (<= 0 (+ 7 (* (- 1) var28))) (<= 0 var28))) (and (<= 0 (+ 7 (* (- 1) var34))) (<= 0 var34))) (and (<= 0 (+ 7 (* (- 1) var10))) (<= 0 var10))) (and (<= 0 (+ 7 (* (- 1) var27))) (<= 0 var27))) (and (<= 0 (+ 7 (* (- 1) var2))) (<= 0 var2))) (and (<= 0 (+ 7 (* (- 1) var33))) (<= 0 var33))) (and (<= 0 (+ 7 (* (- 1) var58))) (<= 0 var58))) (and (<= 0 (+ 7 (* (- 1) var57))) (<= 0 var57))) (and (<= 0 (+ 7 (* (- 1) var52))) (<= 0 var52))) (and (<= 0 (+ 7 (* (- 1) var26))) (<= 0 var26))) (and (<= 0 (+ 7 (* (- 1) var56))) (<= 0 var56))) (and (<= 0 (+ 7 (* (- 1) var25))) (<= 0 var25))) (and (<= 0 (+ 7 (* (- 1) var51))) (<= 0 var51))) (and (<= 0 (+ 7 (* (- 1) var9))) (<= 0 var9))) (and (<= 0 (+ 7 (* (- 1) var50))) (<= 0 var50))) (and (<= 0 (+ 7 (* (- 1) var1))) (<= 0 var1))) (and (<= 0 (+ 7 (* (- 1) var24))) (<= 0 var24))) (and (<= 0 (+ 7 (* (- 1) var42))) (<= 0 var42))) (and (<= 0 (+ 7 (* (- 1) var41))) (<= 0 var41))) (and (<= 0 (+ 7 (* (- 1) var32))) (<= 0 var32))) (and (<= 0 (+ 7 (* (- 1) var16))) (<= 0 var16))) (and (<= 0 (+ 7 (* (- 1) var49))) (<= 0 var49))) (and (<= 0 (+ 7 (* (- 1) var8))) (<= 0 var8))) (and (<= 0 (+ 7 (* (- 1) var7))) (<= 0 var7))) (and (<= 0 (+ 7 (* (- 1) var62))) (<= 0 var62))) (and (<= 0 (+ 7 (* (- 1) var63))) (<= 0 var63))) (and (<= 0 (+ 7 (* (- 1) var21))) (<= 0 var21))) (and (<= 0 (+ 7 (* (- 1) var19))) (<= 0 var19))) (and (<= 0 (+ 7 (* (- 1) var18))) (<= 0 var18))) (and (<= 0 (+ 7 (* (- 1) var17))) (<= 0 var17))) (and (<= 0 (+ 7 (* (- 1) var15))) (<= 0 var15))) (and (<= 0 (+ 7 (* (- 1) var40))) (<= 0 var40))) (and (<= 0 (+ 7 (* (- 1) var48))) (<= 0 var48))))) (inv_main606 var67 var66 var65 var48 var40 var15 var17 var18 var19 var21 var63 var62 var7 var8 var49 var16 var32 var41 var42 var24 var1 var50 var9 var51 var25 var56 var26 var52 var57 var58 var33 var2 var27 var10 var34 var28 var43 var44 var23 var11 var35 var31 var3 var53 var45 var4 var12 var0 var36 var59 var46 var37 var29 var13 var5 var60 var20 var39 var30 var54 var6 var14 var47 var55 var22 var61 var38 1))))
(assert (forall ((var0 Int) (var1 Int) (var2 Int) (var3 Int) (var4 Int) (var5 Int) (var6 Int) (var7 Int) (var8 Int) (var9 Int) (var10 Int) (var11 Int) (var12 Int) (var13 Int) (var14 Int) (var15 Int) (var16 Int) (var17 Int) (var18 Int) (var19 Int) (var20 Int) (var21 Int) (var22 Int) (var23 Int) (var24 Int) (var25 Int) (var26 Int) (var27 Int) (var28 Int) (var29 Int) (var30 Int) (var31 Int) (var32 Int) (var33 Int) (var34 Int) (var35 Int) (var36 Int) (var37 Int) (var38 Int) (var39 Int) (var40 Int) (var41 Int) (var42 Int) (var43 Int) (var44 Int) (var45 Int) (var46 Int) (var47 Int) (var48 Int) (var49 Int) (var50 Int) (var51 Int) (var52 Int) (var53 Int) (var54 Int) (var55 Int) (var56 Int) (var57 Int) (var58 Int) (var59 Int) (var60 Int) (var61 Int) (var62 Int) (var63 Int) (var64 Int) (var65 Int) (var66 Int) (var67 Int)) (not (inv_main606 var67 var66 var65 var64 var63 var62 var61 var60 var59 var58 var57 var56 var55 var54 var53 var52 var51 var50 var49 var48 var47 var46 var45 var44 var43 var42 var41 var40 var39 var38 var37 var36 var35 var34 var33 var32 var31 var30 var29 var28 var27 var26 var25 var24 var23 var22 var21 var20 var19 var18 var17 var16 var15 var14 var13 var12 var11 var10 var9 var8 var7 var6 var5 var4 var3 var2 var1 var0))))
(check-sat)
